98 76 34 57 97 
78 85 16 37 45 
14 12 2 70 18 86 87 94 93 
91 100 
30 29 40 73 58 49 43 48 
95 19 28 59 96 
39 9 20 
61 79 67 71 81 11 32 
90 50 4 55 92 
44 74 
63 38 72 31 47 84 41 3 8 99 66 80 10 17 
23 75 33 21 46 
35 
52 82 27 22 42 7 64 54 68 
65 15 1 
83 5 62 88 69 53 6 51 25 56 26 89 24 36 77 60 13 

